instances/p2/p2_6_8-0.dzn
Alphabet = {A,C,G,T};
ns = 6;
nc = 7;
neighbours = [| I(G),I(T),I(G),I(T),I(A),I(C),I(G) | I(G),I(C),Null,Null,Null,Null,Null | I(T),Null,Null,Null,Null,Null,Null | I(C),I(C),Null,Null,Null,Null,Null | I(T),I(A),I(A),I(G),Null,Null,Null | I(G),I(C),I(A),Null,Null,Null,Null |];
